
<<< setup

Version identifier: 22.1.1.0 | 2022-11-27 | 9160aff4d
Tried aggregator 1 time.
LP Presolve eliminated 1716 rows and 1644 columns.
Reduced LP has 27 rows, 75 columns, and 128 nonzeros.
Presolve time = 0.00 sec. (2.95 ticks)

Iteration log . . .
Iteration:     1   Dual infeasibility =           337.297368
Iteration:    36   Dual objective     =           870.858398
main returns 0

<<< main


<<< done

